RT is False
Default write of storage_offers_DA.csv just to have a file (but constraint should be inactive)
Reading model...
...model read.
creating competitive generators file...
...competitive generators recorded.
Loading data...
.. day-ahead data read.
Compiling instance...
...instance created.
Creating Offer Mitigation (model will solve as dispatch if TRUE)...
NOTE: storage offers will not be mitigated
...storage offer mitigation file created
Converting model to MPEC...
...converted
NOTE: initial MIP solve with only storage competitive to get feasible solution
Solving...

Welcome to IBM(R) ILOG(R) CPLEX(R) Interactive Optimizer 12.9.0.0
  with Simplex, Mixed Integer & Barrier Optimizers
5725-A06 5725-A29 5724-Y48 5724-Y49 5724-Y54 5724-Y55 5655-Y21
Copyright IBM Corp. 1988, 2019.  All Rights Reserved.

Type 'help' for a list of available commands.
Type 'help' followed by a command name for more
information on commands.

CPLEX> Logfile 'cplex.log' closed.
Logfile 'C:\Users\Luke\Desktop\test919\logs\tmpjgmp8ex0.cplex.log' open.
CPLEX> New value for parallel optimization mode: -1
CPLEX> New value for mixed integer optimality gap tolerance: 0.01
CPLEX> New value for integrality tolerance: 1e-09
CPLEX> New value for feasibility tolerance: 0.01
CPLEX> New value for deterministic time limit in ticks: 75000
CPLEX> Problem 'C:\Users\Luke\Desktop\test919\logs\tmpxb0t6iv8.pyomo.lp' read.
Read time = 0.20 sec. (14.73 ticks)
CPLEX> Problem name         : C:\Users\Luke\Desktop\test919\logs\tmpxb0t6iv8.pyomo.lp
Objective sense      : Maximize
Variables            :   53805  [Nneg: 1,  Box: 22000,  Free: 4464,
                                 Binary: 27340]
Objective nonzeros   :    9078
Linear constraints   :  123205  [Less: 41346,  Greater: 59096,  Equal: 22763]
  Nonzeros           :  291802
  RHS nonzeros       :   67540

Variables            : Min LB: -5000.000        Max UB: 1000000.       
Objective nonzeros   : Min   : 0.1000000        Max   : 2500.000       
Linear constraints   :
  Nonzeros           : Min   : 0.1000000        Max   : 1000000.       
  RHS nonzeros       : Min   : 0.1000000        Max   : 1000000.       
CPLEX> CPXPARAM_Parallel                                -1
CPXPARAM_Simplex_Tolerances_Feasibility          0.01
CPXPARAM_DetTimeLimit                            75000
CPXPARAM_MIP_Tolerances_MIPGap                   0.01
CPXPARAM_MIP_Tolerances_Integrality              1.0000000000000001e-09
Tried aggregator 3 times.
MIP Presolve eliminated 88497 rows and 18860 columns.
MIP Presolve added 3419 rows and 0 columns.
MIP Presolve modified 24906 coefficients.
Aggregator did 12964 substitutions.
Reduced MIP has 25163 rows, 21464 columns, and 71713 nonzeros.
Reduced MIP has 8486 binaries, 0 generals, 0 SOSs, and 0 indicators.
Presolve time = 0.23 sec. (176.27 ticks)
Probing fixed 378 vars, tightened 2839 bounds.
Probing time = 1.45 sec. (890.40 ticks)
Tried aggregator 2 times.
MIP Presolve eliminated 856 rows and 761 columns.
MIP Presolve modified 2262 coefficients.
Aggregator did 41 substitutions.
Reduced MIP has 24266 rows, 20662 columns, and 69112 nonzeros.
Reduced MIP has 8106 binaries, 0 generals, 0 SOSs, and 0 indicators.
Presolve time = 0.08 sec. (73.16 ticks)
Probing time = 0.03 sec. (16.22 ticks)
Clique table members: 6447.
MIP emphasis: balance optimality and feasibility.
MIP search method: dynamic search.
Parallel mode: opportunistic, using up to 24 threads.
Root relaxation solution time = 0.42 sec. (303.94 ticks)

        Nodes                                         Cuts/
   Node  Left     Objective  IInf  Best Integer    Best Bound    ItCnt     Gap

      0     0       13.9173  2193                     13.9173     6960         
      0     0       13.9173   652                   Cuts: 766     7296         
      0     0       13.9173   530                   Cuts: 582     7511         
      0     0       13.9173   445                   Cuts: 358     7635         
      0     0       13.9173   413                   Cuts: 107     7676         
      0     0       13.9173   398                    Cuts: 82     7698         
      0     0       13.9173   399                    Cuts: 40     7704         
      0     0       13.9173   395                    Cuts: 33     7707         
      0    18    infeasible                          Fract: 1     7947         
Elapsed time = 9.73 sec. (6359.14 ticks, tree = 0.02 MB, solutions = 0)
    491   250    -2589.2113   362                      3.3709     9442         
    779   546     -111.1022   361                      3.3709    10070         
   1394   814     -111.1022   340                      3.3709    10625         
   2428  1424       10.5464   324                      3.3709    11362         
   2933  2158    infeasible                            3.3709    12200         
   3556  2631       13.9173   309                      3.3709    13060         
   4280  3910       13.9173   283                      3.3709    15043         
   5247  3937       13.9173   263                      3.3709    15080         
   6385  4876     -115.1123   274                      3.3709    15801         
   9077  8314    -2746.2618   196                      3.3709    17653         
Elapsed time = 18.56 sec. (9461.35 ticks, tree = 78.02 MB, solutions = 0)
   9422  8315       10.5464   198                      3.3709    17590         
*  9493  8839      integral     0        3.3709        3.3709    27726    0.00%

Clique cuts applied:  31
Cover cuts applied:  1
Implied bound cuts applied:  36
Flow cuts applied:  470
Mixed integer rounding cuts applied:  14
Gomory fractional cuts applied:  48

Root node processing (before b&c):
  Real time             =    9.36 sec. (6349.54 ticks)
Parallel b&c, 24 threads:
  Real time             =   11.69 sec. (5133.53 ticks)
  Sync time (average)   =    0.24 sec.
  Wait time (average)   =    0.00 sec.
                          ------------
Total (root+branch&cut) =   21.05 sec. (11483.07 ticks)

Solution pool: 2 solutions saved.

MIP - Integer optimal solution:  Objective =  3.3708617661e+00
Solution time =   21.06 sec.  Iterations = 44326  Nodes = 9707
Deterministic time = 11483.23 ticks  (545.21 ticks/sec)

CPLEX> Incumbent solution written to file 'C:\Users\Luke\Desktop\test919\logs\tmp5dq7xm2r.cplex.sol'.
CPLEX> NOTE: no warmstart specified for MIP iteration, default behavior is true
NOTE: resolving with all competitive generators using storage-only solution to warmstart
Solving...

Welcome to IBM(R) ILOG(R) CPLEX(R) Interactive Optimizer 12.9.0.0
  with Simplex, Mixed Integer & Barrier Optimizers
5725-A06 5725-A29 5724-Y48 5724-Y49 5724-Y54 5724-Y55 5655-Y21
Copyright IBM Corp. 1988, 2019.  All Rights Reserved.

Type 'help' for a list of available commands.
Type 'help' followed by a command name for more
information on commands.

CPLEX> Logfile 'cplex.log' closed.
Logfile 'C:\Users\Luke\Desktop\test919\logs\tmpuodm9v8e.cplex.log' open.
CPLEX> New value for parallel optimization mode: -1
CPLEX> New value for mixed integer optimality gap tolerance: 0.01
CPLEX> New value for integrality tolerance: 1e-09
CPLEX> New value for feasibility tolerance: 0.01
CPLEX> New value for deterministic time limit in ticks: 75000
CPLEX> Problem 'C:\Users\Luke\Desktop\test919\logs\tmpxjbspr8c.pyomo.lp' read.
Read time = 0.19 sec. (14.75 ticks)
CPLEX> MIP start file 'C:\Users\Luke\Desktop\test919\logs\tmp4fxbqrdp.cplex.mst' read.
CPLEX> Problem name         : C:\Users\Luke\Desktop\test919\logs\tmpxjbspr8c.pyomo.lp
Objective sense      : Maximize
Variables            :   54525  [Nneg: 1,  Box: 22720,  Free: 4464,
                                 Binary: 27340]
Objective nonzeros   :    9798
Linear constraints   :  123205  [Less: 41346,  Greater: 59096,  Equal: 22763]
  Nonzeros           :  291802
  RHS nonzeros       :   67540

Variables            : Min LB: -5000.000        Max UB: 1000000.       
Objective nonzeros   : Min   : 0.1000000        Max   : 2500.000       
Linear constraints   :
  Nonzeros           : Min   : 0.1000000        Max   : 1000000.       
  RHS nonzeros       : Min   : 0.1000000        Max   : 1000000.       
CPLEX> CPXPARAM_Parallel                                -1
CPXPARAM_Simplex_Tolerances_Feasibility          0.01
CPXPARAM_DetTimeLimit                            75000
CPXPARAM_MIP_Tolerances_MIPGap                   0.01
CPXPARAM_MIP_Tolerances_Integrality              1.0000000000000001e-09
Warning:  No solution found from 1 MIP starts.
Retaining values of one MIP start for possible repair.
Tried aggregator 3 times.
MIP Presolve eliminated 88497 rows and 19580 columns.
MIP Presolve added 3419 rows and 0 columns.
MIP Presolve modified 24906 coefficients.
Aggregator did 12964 substitutions.
Reduced MIP has 25163 rows, 21464 columns, and 71713 nonzeros.
Reduced MIP has 8486 binaries, 0 generals, 0 SOSs, and 0 indicators.
Presolve time = 0.25 sec. (176.64 ticks)
Probing fixed 378 vars, tightened 2839 bounds.
Probing time = 1.44 sec. (890.40 ticks)
Tried aggregator 2 times.
MIP Presolve eliminated 856 rows and 761 columns.
MIP Presolve modified 2262 coefficients.
Aggregator did 41 substitutions.
Reduced MIP has 24266 rows, 20662 columns, and 69112 nonzeros.
Reduced MIP has 8106 binaries, 0 generals, 0 SOSs, and 0 indicators.
Presolve time = 0.09 sec. (73.16 ticks)
Probing time = 0.03 sec. (16.22 ticks)
Clique table members: 6447.
MIP emphasis: balance optimality and feasibility.
MIP search method: dynamic search.
Parallel mode: opportunistic, using up to 24 threads.
Root relaxation solution time = 0.42 sec. (303.94 ticks)

        Nodes                                         Cuts/
   Node  Left     Objective  IInf  Best Integer    Best Bound    ItCnt     Gap

      0     0       13.9173  2193                     13.9173     6960         
      0     0       13.9173   652                   Cuts: 766     7296         
      0     0       13.9173   530                   Cuts: 582     7511         
      0     0       13.9173   445                   Cuts: 358     7635         
      0     0       13.9173   413                   Cuts: 108     7676         
      0     0       13.9173   398                    Cuts: 82     7698         
      0     0       13.9173   399                    Cuts: 40     7704         
      0     0       13.9173   395                    Cuts: 33     7707         
Repair heuristic found nothing.
      0    11    infeasible                          Fract: 1     7831         
Elapsed time = 9.88 sec. (6355.67 ticks, tree = 0.02 MB, solutions = 0)
    378    59      -57.5989   376                      3.3709     8456         
    784   484    -2585.4230   346                      3.3709     9400         
   1430  1210       10.5464   348                      3.3709    10404         
   2483  1803      -57.5989   347                      3.3709    10431         
   3027  2599       10.5464   334                      3.3709    11009         
   3739  3934      -58.3950   324                      3.3709    11326         
   4751  3286       10.5464   311                      3.3709    11297         
   5897  4420       13.9173   331                      3.3709    11342         
   6828  5244       10.5464   314                      3.3709    11404         
*  8751+ 4918                            0.0701        3.3709              --- 
Elapsed time = 18.50 sec. (9289.94 ticks, tree = 40.25 MB, solutions = 2)
*  9689  4872      integral     0        3.4749        3.3709    27421   -2.99%
*  9699  8095      integral     0        3.6742        3.3709    25235   -8.26%
*  9702  4827      integral     0        3.6821        3.3709    25895   -8.45%

Clique cuts applied:  31
Implied bound cuts applied:  34
Flow cuts applied:  472
Mixed integer rounding cuts applied:  15
Gomory fractional cuts applied:  48

Root node processing (before b&c):
  Real time             =    9.45 sec. (6349.71 ticks)
Parallel b&c, 24 threads:
  Real time             =   10.00 sec. (4013.75 ticks)
  Sync time (average)   =    0.24 sec.
  Wait time (average)   =    0.00 sec.
                          ------------
Total (root+branch&cut) =   19.45 sec. (10363.46 ticks)

Solution pool: 4 solutions saved.

MIP - Integer optimal solution:  Objective =  3.6820796967e+00
Solution time =   19.45 sec.  Iterations = 35447  Nodes = 9703
Deterministic time = 10363.61 ticks  (532.75 ticks/sec)

CPLEX> Incumbent solution written to file 'C:\Users\Luke\Desktop\test919\logs\tmp988pv_wt.cplex.sol'.
CPLEX> Exporting results... 
